sat
(:max-memory         18.05
 :memory             17.94
 :nlsat-propagations 9
 :nlsat-stages       3
 :num-allocs         7281
 :rlimit-count       2633
 :time               0.00
 :total-time         0.01)
